NAME : mr26
COMMENT : 26-city problem (DISC)
TYPE : TSP
DIMENSION : 26
EDGE_WEIGHT_TYPE : EUC_2D
NODE_COORD_SECTION
1 31 73
2 52 30
3 77 61
4 79 76
5 88 65
6 19 93
7 27 89
8 50 65
9 74 30
10 20 69
11 18 28
12 54 13
13 29 57
14 77 41
15 27 57
16 30 86
17 97 10
18 92 36
19 57 98
20 49 93
21 66 97
22 54 6
23 100 89
24 15 77
25 98 24
26 62 11
EOF
